************************************************************************
file with basedata            : 
initial value random generator: 
************************************************************************
projects                      :  1
jobs (incl. supersource/sink ):  72
horizon                       :  350
RESOURCES
  - renewable                 :  4   R
  - nonrenewable              :  0   N
  - doubly constrained        :  0   D
************************************************************************
PROJECT INFORMATION:
pronr.  #jobs rel.date duedate tardcost  MPM-Time
	1     70      0       10        1       10
************************************************************************
PRECEDENCE RELATIONS:
jobnr.    #modes  #successors   successors
   1        1         12           2   3   4   5   6   7   8   9  10  11  12  13 
   2        1          2          14  15 
   3        1          1          16 
   4        1          1          17 
   5        1          1          18 
   6        1          8          19  20  21  22  23  24  25  26 
   7        1          3          28  29  30 
   8        1          7          33  34  35  36  37  38  39 
   9        1          4          42  43  44  45 
  10        1          4          48  49  50  51 
  11        1          6          54  55  56  57  58  59 
  12        1          3          64  65  66 
  13        1          2          68  69 
  14        1          8          19  20  21  22  23  24  25  26 
  15        1          1          72 
  16        1          8          19  20  21  22  23  24  25  26 
  17        1          3          28  29  30 
  18        1          7          33  34  35  36  37  38  39 
  19        1          1          27 
  20        1          3          28  29  30 
  21        1          7          33  34  35  36  37  38  39 
  22        1          4          42  43  44  45 
  23        1          4          48  49  50  51 
  24        1          6          54  55  56  57  58  59 
  25        1          3          64  65  66 
  26        1          1          72 
  27        1          3          28  29  30 
  28        1          1          31 
  29        1          1          32 
  30        1          1          72 
  31        1          7          33  34  35  36  37  38  39 
  32        1          7          33  34  35  36  37  38  39 
  33        1          1          40 
  34        1          1          41 
  35        1          4          48  49  50  51 
  36        1          6          54  55  56  57  58  59 
  37        1          3          64  65  66 
  38        1          2          68  69 
  39        1          1          72 
  40        1          4          48  49  50  51 
  41        1          4          42  43  44  45 
  42        1          1          46 
  43        1          1          47 
  44        1          4          48  49  50  51 
  45        1          1          72 
  46        1          4          48  49  50  51 
  47        1          6          54  55  56  57  58  59 
  48        1          1          52 
  49        1          1          53 
  50        1          6          54  55  56  57  58  59 
  51        1          1          72 
  52        1          6          54  55  56  57  58  59 
  53        1          6          54  55  56  57  58  59 
  54        1          1          60 
  55        1          1          61 
  56        1          1          62 
  57        1          1          63 
  58        1          3          64  65  66 
  59        1          1          72 
  60        1          3          64  65  66 
  61        1          3          64  65  66 
  62        1          2          68  69 
  63        1          2          68  69 
  64        1          1          67 
  65        1          2          68  69 
  66        1          1          72 
  67        1          2          68  69 
  68        1          1          70 
  69        1          1          71 
  70        1          1          72 
  71        1          1          72 
  72        1          0         
************************************************************************
REQUESTS/DURATIONS:
jobnr. mode duration  R 1  R 2  R 3  R 4
------------------------------------------------------------------------
  1      1     0       0    0    0    0
  2      1     9       0    0    2    4
  3      1     5       0    0    0    0
  4      1     8       0    0    8    0
  5      1    10       4   10    1    1
  6      1     6       5   10    0    0
  7      1    10       0    8    1    0
  8      1     8       0    0    0    0
  9      1     1       4    9    0    0
 10      1     2       3    7    9    0
 11      1     7       0    0    0    0
 12      1     5       0    4    7    0
 13      1     7       0    0    7    8
 14      1     5       8    0   10    0
 15      1     5       0    1    3    5
 16      1     2       0    4    7    5
 17      1     7       6    0    8    0
 18      1     5       0    4    0    7
 19      1     9       6    2    0    0
 20      1     2       0    7    0    0
 21      1     7      10    4    6    0
 22      1     2       2    2    0    0
 23      1     8       9    4    7    3
 24      1     3       8    0    6    0
 25      1     3       0    8    7    0
 26      1     2       0    0    1    0
 27      1     9       6    9    0    0
 28      1     8       0    0    1    3
 29      1     4       4    8    2    8
 30      1     1       9    2    8    0
 31      1     9       0    4    0    0
 32      1     5       0    0    0    4
 33      1     4       0    0    0    0
 34      1     1       4    0    7    0
 35      1     3       4    2    0    0
 36      1     6      10    0    0    0
 37      1     1       2    8    0    0
 38      1     5       6    0    0    5
 39      1     3       9    6    0    5
 40      1    10       0    4    9    9
 41      1     1       0    0    0    0
 42      1     5       1    0    0    4
 43      1     3       0    6    0    4
 44      1    10      10    0    7    0
 45      1     8       4    9    0    9
 46      1     6       0    9    4    4
 47      1    10       0    0    0    8
 48      1     3       9    0    0    0
 49      1     7       7    0    0    0
 50      1     9       0    0    0    8
 51      1     3       0    2    3    0
 52      1     2       0    7    0    3
 53      1     9       0    0    0    0
 54      1    10       4    0    0    0
 55      1     5       7    3    5    0
 56      1     8       0    5    0    0
 57      1     1       0    0    5   10
 58      1     3       1    3    0    4
 59      1     8       0    0    6    1
 60      1     4       9    0    5    0
 61      1     1       0    9    0    0
 62      1     9       0    0    8    1
 63      1     9       0    0    0    0
 64      1     7       6    8    0    0
 65      1     5       0    2    0    5
 66      1    10       2    0    3    8
 67      1     2       5    0    0    0
 68      1     3       5    3    3    0
 69      1     1       8    6    3    0
 70      1     1       0    0    6    9
 71      1     5       7    0    0    0
 72      1     0       0    0    0    0
************************************************************************
RESOURCEAVAILABILITIES:
  R 1  R 2  R 3  R 4
   10   10   14   15
************************************************************************
